Problem
 small
Minimize
 obj:   x1 +  x2 +  x3 +  x4 +  x5 +  x6 +  x7 +  x8 +  x9 +  x10 +  x11 +  x12 +  x13 +  x14 +  x15 +  x16 +  x17 +  x18 +  x19 +  x20 +  x21 +  x22 +  x23 +  x24 +  x25 +  x26 +  x27 +  x28 +  x29 +  x30 +  x31 +  x32
Subject To
 c1:  -  x16 <= 0
 c2:   x1 +  x3 +  x5 +  x7 +  x9 +  x11 +  x13 +  x15 <= 0
 c3:   x2 +  x3 +  x6 +  x7 +  x10 +  x11 +  x14 +  x15 <= 0
 c4:   x4 +  x5 +  x6 +  x7 +  x12 +  x13 +  x14 +  x15 <= 0
 c5:   x8 +  x9 +  x10 +  x11 +  x12 +  x13 +  x14 +  x15 <= 0
 c6:  -  x17 <= 0
 c7:  -  x18 <= 0
 c8:  -  x19 <= 0
 c9:   x1 +  x2 +  x3 +  x5 +  x6 +  x7 +  x9 +  x10 +  x11 +  x13 +  x14 +  x15 -  x16 +  x17 +  x18 +  x19 <= 0
 c10:  -  x20 <= 0
 c11:  -  x21 <= 0
 c12:  -  x2 -  x10 -  x19 +  x20 +  x21 <= 0
 c13:  -  x22 <= 0
 c14:  - 5 x1 - 6 x2 - 9 x3 - 6 x4 - 10 x5 - 10 x6 - 13 x7 - 5 x8 - 12 x9 - 10 x10 - 14 x11 - 10 x12 - 14 x13 - 13 x14 - 15 x15 + 4 x16 -  x19 +  x20 +  x21 + 2 x22 <= 1
 c15:  -  x23 <= 0
 c16:  6 x1 + 6 x2 + 10 x3 + 6 x4 + 11 x5 + 10 x6 + 14 x7 + 6 x8 + 13 x9 + 11 x10 + 15 x11 + 11 x12 + 15 x13 + 14 x14 + 16 x15 - 4 x16 +  x19 -  x20 -  x21 -  x22 +  x23 <= -1
 c17:  -  x24 <= 0
 c18:  2 x1 +  x2 + 2 x3 +  x4 + 2 x5 +  x6 + 2 x7 + 2 x9 +  x10 + 2 x11 +  x12 + 2 x13 +  x14 + 2 x15 +  x19 +  x24 <= 0
 c19:  -  x25 <= 0
 c20:   x2 +  x3 +  x4 +  x5 +  x6 +  x7 +  x10 +  x11 +  x12 +  x13 +  x14 +  x15 +  x25 <= 0
 c21:  5 x1 + 5 x2 + 9 x3 + 5 x4 + 9 x5 + 9 x6 + 12 x7 + 5 x8 + 12 x9 + 9 x10 + 13 x11 + 9 x12 + 13 x13 + 12 x14 + 14 x15 - 5 x16 +  x19 -  x22 <= -1
 c22:   x1 +  x2 +  x3 +  x5 +  x6 +  x7 +  x8 +  x9 +  x10 +  x11 +  x12 +  x13 +  x14 +  x15 +  x17 +  x18 +  x23 <= 0
 c23:  - 6 x1 - 5 x2 - 9 x3 - 5 x4 - 10 x5 - 9 x6 - 12 x7 - 5 x8 - 12 x9 - 9 x10 - 13 x11 - 9 x12 - 13 x13 - 12 x14 - 14 x15 + 5 x16 -  x17 -  x18 -  x19 +  x22 -  x23 <= 1
 c24:  -  x26 <= 0
 c25:  -  x28 <= 0
 c26:  -  x29 <= 0
 c27:  - 7 x1 - 6 x2 - 10 x3 - 6 x4 - 11 x5 - 10 x6 - 13 x7 - 5 x8 - 12 x9 - 10 x10 - 14 x11 - 10 x12 - 14 x13 - 13 x14 - 15 x15 + 4 x16 -  x17 -  x19 +  x22 -  x24 +  x27 <= 1
 c28:  2 x1 + 2 x2 + 2 x3 +  x4 + 2 x5 + 2 x6 + 2 x7 + 2 x9 + 2 x10 + 2 x11 +  x12 + 2 x13 + 2 x14 + 2 x15 -  x16 +  x17 +  x19 +  x24 +  x26 +  x28 +  x29 <= 0
 c29:  -  x30 <= 0
 c30:  5 x1 + 5 x2 + 9 x3 + 6 x4 + 10 x5 + 10 x6 + 13 x7 + 5 x8 + 12 x9 + 10 x10 + 14 x11 + 10 x12 + 14 x13 + 13 x14 + 15 x15 - 5 x16 +  x19 -  x22 +  x30 <= -1
 c31:  -  x31 <= 0
 c32:  -  x1 -  x16 +  x25 +  x27 <= 0
 c33:  -  x32 <= 0
 c34:   x1 +  x2 +  x3 +  x4 +  x5 +  x6 +  x7 +  x9 +  x10 +  x11 +  x12 +  x13 +  x14 +  x15 +  x26 +  x29 +  x31 <= 0
 c35:  -  x3 +  x16 -  x20 -  x22 -  x25 -  x27 <= 0
 c36:  -  x2 -  x10 +  x20 -  x26 -  x29 +  x32 <= 0
 c37:   x1 +  x2 +  x3 +  x4 +  x5 +  x6 +  x7 +  x8 +  x9 +  x10 +  x11 +  x12 +  x13 +  x14 +  x15 +  x26 +  x31 <= 0
 c38:  -  x2 -  x16 +  x20 +  x22 -  x26 +  x30 +  x32 <= 0
 c39:   x1 +  x2 +  x3 +  x5 +  x6 +  x7 +  x8 +  x9 +  x10 +  x11 +  x12 +  x13 +  x14 +  x15 +  x17 +  x24 +  x28 -  x31 <= 0
 c40:  -  x6 +  x16 -  x17 -  x20 -  x28 -  x30 -  x32 <= 0
 c41:  - 7 x1 - 6 x2 - 11 x3 - 6 x4 - 11 x5 - 10 x6 - 14 x7 - 5 x8 - 12 x9 - 10 x10 - 14 x11 - 10 x12 - 14 x13 - 13 x14 - 15 x15 + 4 x16 -  x19 -  x24 <= 1
Bounds
 x1 free
 x2 free
 x3 free
 x4 free
 x5 free
 x6 free
 x7 free
 x8 free
 x9 free
 x10 free
 x11 free
 x12 free
 x13 free
 x14 free
 x15 free
 x16 free
 x17 free
 x18 free
 x19 free
 x20 free
 x21 free
 x22 free
 x23 free
 x24 free
 x25 free
 x26 free
 x27 free
 x28 free
 x29 free
 x30 free
 x31 free
 x32 free
End
